(set-logic ALL)
(declare-fun var0 () String)
(assert (str.in_re var0 (re.++ (re.* (re.union (str.to_re "00") (str.to_re "111"))) (re.++ (re.union (re.* (str.to_re "22")) (re.+ (str.to_re "3"))) (re.++ (re.* (re.union (str.to_re "444") (str.to_re "5"))) (re.++ (re.+ (re.+ (str.to_re "6"))) (re.++ (re.* (re.+ (str.to_re "7"))) (re.++ (re.+ (re.union (str.to_re "888") (str.to_re "99"))) (re.++ (re.* (re.+ (str.to_re "aaa"))) (re.++ (re.union (re.union (str.to_re "bb") (str.to_re "cc")) (re.union (str.to_re "ddd") (str.to_re "eee"))) (re.++ (re.* (re.+ (str.to_re "fff"))) (re.++ (re.union (re.* (str.to_re "gg")) (re.* (str.to_re "hh"))) (re.++ (re.union (re.* (str.to_re "iii")) (re.+ (str.to_re "jjj"))) (re.++ (re.union (re.union (str.to_re "kkk") (str.to_re "ll")) (re.* (str.to_re "mm"))) (re.++ (re.* (re.* (str.to_re "nn"))) (re.++ (re.union (re.+ (str.to_re "o")) (re.+ (str.to_re "p"))) (re.++ (re.union (re.+ (str.to_re "q")) (re.* (str.to_re "rr"))) (re.++ (re.* (re.* (str.to_re "s"))) (re.++ (re.* (re.* (str.to_re "t"))) (re.++ (re.union (re.* (str.to_re "u")) (re.* (str.to_re "vvv"))) (re.++ (re.+ (re.+ (str.to_re "ww"))) (re.++ (re.union (re.+ (str.to_re "xx")) (re.+ (str.to_re "yyy"))) (re.++ (re.* (re.* (str.to_re "z"))) (re.++ (re.* (re.* (str.to_re "AA"))) (re.++ (re.union (re.+ (str.to_re "B")) (re.+ (str.to_re "CC"))) (re.++ (re.union (re.+ (str.to_re "DD")) (re.* (str.to_re "EEE"))) (re.++ (re.* (re.+ (str.to_re "F"))) (re.++ (re.+ (re.* (str.to_re "G"))) (re.++ (re.+ (re.union (str.to_re "HHH") (str.to_re "I"))) (re.++ (re.union (re.+ (str.to_re "J")) (re.union (str.to_re "KKK") (str.to_re "LL"))) (re.++ (re.+ (re.union (str.to_re "MM") (str.to_re "NNN"))) (re.++ (re.* (re.+ (str.to_re "OOO"))) (re.++ (re.* (re.+ (str.to_re "P"))) (re.++ (re.union (re.+ (str.to_re "Q")) (re.* (str.to_re "RR"))) (re.++ (re.* (re.* (str.to_re "S"))) (re.++ (re.* (re.* (str.to_re "TT"))) (re.++ (re.* (re.* (str.to_re "UUU"))) (re.++ (re.union (re.* (str.to_re "V")) (re.union (str.to_re "WW") (str.to_re "XX"))) (re.++ (re.+ (re.union (str.to_re "Y") (str.to_re "Z"))) (re.++ (re.union (re.+ (str.to_re "!")) (re.+ (str.to_re """"""""))) (re.++ (re.+ (re.union (str.to_re "##") (str.to_re "$$"))) (re.++ (re.+ (re.union (str.to_re "%") (str.to_re "&&&"))) (re.++ (re.union (re.* (str.to_re "'")) (re.union (str.to_re "((") (str.to_re "))"))) (re.++ (re.union (re.union (str.to_re "***") (str.to_re "++")) (re.union (str.to_re ",,,") (str.to_re "---"))) (re.++ (re.+ (re.+ (str.to_re "."))) (re.++ (re.union (re.union (str.to_re "///") (str.to_re "::")) (re.+ (str.to_re ";;;"))) (re.++ (re.+ (re.+ (str.to_re "<<<"))) (re.++ (re.union (re.+ (str.to_re "==")) (re.union (str.to_re ">>>") (str.to_re "???"))) (re.++ (re.union (re.+ (str.to_re "@")) (re.* (str.to_re "["))) (re.++ (re.* (re.union (str.to_re "\\\\") (str.to_re "]"))) (re.++ (re.* (re.* (str.to_re "^^"))) (re.++ (re.union (re.* (str.to_re "_")) (re.union (str.to_re "`") (str.to_re "{{{"))) (re.++ (re.* (re.* (str.to_re "||"))) (re.++ (re.* (re.* (str.to_re "}}}"))) (re.++ (re.+ (re.* (str.to_re "~~"))) (re.++ (re.* (re.+ (str.to_re "000"))) (re.++ (re.+ (re.+ (str.to_re "11"))) (re.++ (re.* (re.union (str.to_re "22") (str.to_re "333"))) (re.++ (re.* (re.* (str.to_re "44"))) (re.++ (re.union (re.+ (str.to_re "555")) (re.* (str.to_re "666"))) (re.++ (re.+ (re.+ (str.to_re "777"))) (re.++ (re.* (re.* (str.to_re "888"))) (re.++ (re.* (re.* (str.to_re "99"))) (re.++ (re.* (re.+ (str.to_re "a"))) (re.++ (re.+ (re.union (str.to_re "b") (str.to_re "ccc"))) (re.++ (re.union (re.* (str.to_re "dd")) (re.+ (str.to_re "eee"))) (re.++ (re.* (re.+ (str.to_re "f"))) (re.++ (re.+ (re.+ (str.to_re "ggg"))) (re.++ (re.* (re.* (str.to_re "hh"))) (re.++ (re.* (re.* (str.to_re "ii"))) (re.++ (re.* (re.* (str.to_re "j"))) (re.++ (re.* (re.* (str.to_re "kk"))) (re.++ (re.+ (re.union (str.to_re "ll") (str.to_re "mmm"))) (re.++ (re.+ (re.+ (str.to_re "nn"))) (re.++ (re.* (re.+ (str.to_re "oo"))) (re.++ (re.* (re.* (str.to_re "pp"))) (re.++ (re.* (re.union (str.to_re "qq") (str.to_re "rrr"))) (re.++ (re.union (re.* (str.to_re "sss")) (re.+ (str.to_re "ttt"))) (re.++ (re.union (re.+ (str.to_re "uuu")) (re.union (str.to_re "vvv") (str.to_re "www"))) (re.++ (re.* (re.* (str.to_re "xxx"))) (re.++ (re.+ (re.union (str.to_re "yy") (str.to_re "z"))) (re.++ (re.* (re.+ (str.to_re "AA"))) (re.++ (re.union (re.union (str.to_re "B") (str.to_re "C")) (re.union (str.to_re "D") (str.to_re "E"))) (re.++ (re.* (re.union (str.to_re "F") (str.to_re "GGG"))) (re.++ (re.+ (re.union (str.to_re "H") (str.to_re "II"))) (re.++ (re.+ (re.* (str.to_re "JJJ"))) (re.union (re.union (str.to_re "KKK") (str.to_re "LLL")) (re.union (str.to_re "MMM") (str.to_re "N")))))))))))))))))))))))))))))))))))))))))))))))))))))))))))))))))))))))))))))))))))))))))
(check-sat)